25° run output:
{
    "Function": "ClusterA300.tsp",
    "Problem dimension": [
        237,
        140,
        39,
        208,
        132,
        156,
        94,
        151,
        168,
        33,
        69,
        283,
        139,
        142,
        112,
        165,
        128,
        32,
        293,
        110,
        76,
        104,
        214,
        249,
        40,
        141,
        138,
        17,
        209,
        146,
        7,
        254,
        268,
        127,
        44,
        65,
        67,
        211,
        14,
        298,
        38,
        174,
        228,
        91,
        207,
        120,
        232,
        219,
        114,
        46,
        123,
        83,
        184,
        89,
        153,
        137,
        280,
        101,
        149,
        143,
        287,
        173,
        185,
        239,
        154,
        3,
        253,
        5,
        119,
        286,
        210,
        289,
        81,
        212,
        230,
        27,
        100,
        190,
        90,
        282,
        48,
        222,
        105,
        263,
        52,
        166,
        290,
        115,
        54,
        64,
        240,
        267,
        6,
        71,
        62,
        181,
        12,
        244,
        191,
        11,
        136,
        213,
        158,
        111,
        242,
        109,
        135,
        31,
        187,
        157,
        124,
        49,
        218,
        34,
        273,
        171,
        72,
        281,
        59,
        4,
        248,
        163,
        85,
        73,
        2,
        55,
        258,
        57,
        162,
        25,
        18,
        97,
        205,
        126,
        178,
        169,
        61,
        284,
        68,
        79,
        53,
        96,
        183,
        175,
        170,
        272,
        176,
        99,
        182,
        144,
        231,
        177,
        220,
        241,
        206,
        150,
        60,
        77,
        98,
        180,
        270,
        229,
        167,
        13,
        58,
        295,
        70,
        196,
        223,
        188,
        189,
        103,
        74,
        204,
        202,
        236,
        172,
        88,
        199,
        277,
        87,
        26,
        84,
        155,
        260,
        247,
        296,
        251,
        198,
        152,
        116,
        164,
        148,
        261,
        203,
        86,
        21,
        266,
        221,
        246,
        82,
        78,
        216,
        285,
        56,
        274,
        125,
        291,
        294,
        102,
        117,
        0,
        66,
        28,
        292,
        245,
        16,
        201,
        147,
        160,
        29,
        51,
        255,
        30,
        259,
        215,
        299,
        269,
        235,
        256,
        23,
        224,
        43,
        36,
        161,
        192,
        252,
        193,
        93,
        113,
        108,
        37,
        238,
        35,
        10,
        145,
        288,
        226,
        264,
        297,
        276,
        225,
        42,
        262,
        131,
        80,
        271,
        121,
        20,
        75,
        200,
        95,
        1,
        47,
        186,
        194,
        234,
        243,
        107,
        279,
        159,
        227,
        92,
        9,
        129,
        63,
        15,
        50,
        195,
        257,
        118,
        250,
        133,
        278,
        197,
        122,
        19,
        22,
        24,
        134,
        233,
        275,
        41,
        265,
        45,
        217,
        130,
        179,
        8,
        106
    ],
    "Global Optimum": 0,
    "Algorithm": "Genetic algorithm",
    "Parameters": {
        "population": 30,
        "offspring": 30,
        "mutation probability": 0.0033333333333333335,
        "crossover probability": 0.9
    },
    "Fitness": 269877,
    "Solution": [
        237,
        140,
        39,
        208,
        132,
        156,
        94,
        151,
        168,
        33,
        69,
        283,
        139,
        142,
        112,
        165,
        128,
        32,
        293,
        110,
        76,
        104,
        214,
        249,
        40,
        141,
        138,
        17,
        209,
        146,
        7,
        254,
        268,
        127,
        44,
        65,
        67,
        211,
        14,
        298,
        38,
        174,
        228,
        91,
        207,
        120,
        232,
        219,
        114,
        46,
        123,
        83,
        184,
        89,
        153,
        137,
        280,
        101,
        149,
        143,
        287,
        173,
        185,
        239,
        154,
        3,
        253,
        5,
        119,
        286,
        210,
        289,
        81,
        212,
        230,
        27,
        100,
        190,
        90,
        282,
        48,
        222,
        105,
        263,
        52,
        166,
        290,
        115,
        54,
        64,
        240,
        267,
        6,
        71,
        62,
        181,
        12,
        244,
        191,
        11,
        136,
        213,
        158,
        111,
        242,
        109,
        135,
        31,
        187,
        157,
        124,
        49,
        218,
        34,
        273,
        171,
        72,
        281,
        59,
        4,
        248,
        163,
        85,
        73,
        2,
        55,
        258,
        57,
        162,
        25,
        18,
        97,
        205,
        126,
        178,
        169,
        61,
        284,
        68,
        79,
        53,
        96,
        183,
        175,
        170,
        272,
        176,
        99,
        182,
        144,
        231,
        177,
        220,
        241,
        206,
        150,
        60,
        77,
        98,
        180,
        270,
        229,
        167,
        13,
        58,
        295,
        70,
        196,
        223,
        188,
        189,
        103,
        74,
        204,
        202,
        236,
        172,
        88,
        199,
        277,
        87,
        26,
        84,
        155,
        260,
        247,
        296,
        251,
        198,
        152,
        116,
        164,
        148,
        261,
        203,
        86,
        21,
        266,
        221,
        246,
        82,
        78,
        216,
        285,
        56,
        274,
        125,
        291,
        294,
        102,
        117,
        0,
        66,
        28,
        292,
        245,
        16,
        201,
        147,
        160,
        29,
        51,
        255,
        30,
        259,
        215,
        299,
        269,
        235,
        256,
        23,
        224,
        43,
        36,
        161,
        192,
        252,
        193,
        93,
        113,
        108,
        37,
        238,
        35,
        10,
        145,
        288,
        226,
        264,
        297,
        276,
        225,
        42,
        262,
        131,
        80,
        271,
        121,
        20,
        75,
        200,
        95,
        1,
        47,
        186,
        194,
        234,
        243,
        107,
        279,
        159,
        227,
        92,
        9,
        129,
        63,
        15,
        50,
        195,
        257,
        118,
        250,
        133,
        278,
        197,
        122,
        19,
        22,
        24,
        134,
        233,
        275,
        41,
        265,
        45,
        217,
        130,
        179,
        8,
        106
    ],
    "Nb of functions evaluations": 400020,
    "Computational time in seconds": 676.4628939628601,
    "Stopping criterion in evaluations": 400000
}